(set-logic ALL)
; benchmark generated from python API
(set-info :status unknown)
(declare-datatypes ((Proc 0)) (((foo_func) (coinbase))))
(declare-fun w_0 () Int)
(declare-fun success_1 () Bool)
(declare-fun t_success_0_0 () Bool)
(declare-fun aw_0_2 () Int)
(declare-fun aw_1_2 () Int)
(declare-fun aw_0_1 () Int)
(declare-fun aw_1_1 () Int)
(declare-fun aw_0_0 () Int)
(declare-fun aw_1_0 () Int)
(declare-fun t_w_0_0 () Int)
(declare-fun w_1 () Int)
(declare-fun err_1 () Bool)
(declare-fun xn_0 () Int)
(declare-fun xa_0 () Int)
(declare-fun success_2 () Bool)
(declare-fun t_success_1_0 () Bool)
(declare-fun aw_2_2 () Int)
(declare-fun aw_2_1 () Int)
(declare-fun aw_2_0 () Int)
(declare-fun t_w_1_0 () Int)
(declare-fun w_2 () Int)
(declare-fun err_2 () Bool)
(declare-fun xn_1 () Int)
(declare-fun xa_1 () Int)
(declare-fun f_1 () Proc)
(declare-fun block_num_1 () Int)
(declare-fun block_num_2 () Int)
(declare-fun success_3 () Bool)
(declare-fun t_success_2_0 () Bool)
(declare-fun aw_3_2 () Int)
(declare-fun aw_3_1 () Int)
(declare-fun aw_3_0 () Int)
(declare-fun t_w_2_0 () Int)
(declare-fun w_3 () Int)
(declare-fun err_3 () Bool)
(declare-fun xn_2 () Int)
(declare-fun xa_2 () Int)
(declare-fun f_2 () Proc)
(declare-fun block_num_3 () Int)
(declare-fun success_4 () Bool)
(declare-fun t_success_3_0 () Bool)
(declare-fun aw_4_2 () Int)
(declare-fun aw_4_1 () Int)
(declare-fun aw_4_0 () Int)
(declare-fun t_w_3_0 () Int)
(declare-fun w_4 () Int)
(declare-fun err_4 () Bool)
(declare-fun xn_3 () Int)
(declare-fun xa_3 () Int)
(declare-fun f_3 () Proc)
(declare-fun block_num_4 () Int)
(declare-fun success_5 () Bool)
(declare-fun t_success_4_0 () Bool)
(declare-fun aw_5_2 () Int)
(declare-fun aw_5_1 () Int)
(declare-fun aw_5_0 () Int)
(declare-fun t_w_4_0 () Int)
(declare-fun w_5 () Int)
(declare-fun err_5 () Bool)
(declare-fun xn_4 () Int)
(declare-fun xa_4 () Int)
(declare-fun f_4 () Proc)
(declare-fun block_num_5 () Int)
(declare-fun success_6 () Bool)
(declare-fun t_success_5_0 () Bool)
(declare-fun aw_6_2 () Int)
(declare-fun aw_6_1 () Int)
(declare-fun aw_6_0 () Int)
(declare-fun t_w_5_0 () Int)
(declare-fun w_6 () Int)
(declare-fun err_6 () Bool)
(declare-fun xn_5 () Int)
(declare-fun xa_5 () Int)
(declare-fun f_5 () Proc)
(declare-fun block_num_6 () Int)
(declare-fun success_7 () Bool)
(declare-fun t_success_6_0 () Bool)
(declare-fun aw_7_2 () Int)
(declare-fun aw_7_1 () Int)
(declare-fun aw_7_0 () Int)
(declare-fun t_w_6_0 () Int)
(declare-fun w_7 () Int)
(declare-fun err_7 () Bool)
(declare-fun xn_6 () Int)
(declare-fun xa_6 () Int)
(declare-fun f_6 () Proc)
(declare-fun block_num_7 () Int)
(declare-fun success_8 () Bool)
(declare-fun t_success_7_0 () Bool)
(declare-fun aw_8_2 () Int)
(declare-fun aw_8_1 () Int)
(declare-fun aw_8_0 () Int)
(declare-fun t_w_7_0 () Int)
(declare-fun w_8 () Int)
(declare-fun err_8 () Bool)
(declare-fun xn_7 () Int)
(declare-fun xa_7 () Int)
(declare-fun f_7 () Proc)
(declare-fun block_num_8 () Int)
(declare-fun success_9 () Bool)
(declare-fun t_success_8_0 () Bool)
(declare-fun aw_9_2 () Int)
(declare-fun aw_9_1 () Int)
(declare-fun aw_9_0 () Int)
(declare-fun t_w_8_0 () Int)
(declare-fun w_9 () Int)
(declare-fun err_9 () Bool)
(declare-fun xn_8 () Int)
(declare-fun xa_8 () Int)
(declare-fun f_8 () Proc)
(declare-fun block_num_9 () Int)
(declare-fun success_10 () Bool)
(declare-fun t_success_9_0 () Bool)
(declare-fun aw_10_2 () Int)
(declare-fun aw_10_1 () Int)
(declare-fun aw_10_0 () Int)
(declare-fun t_w_9_0 () Int)
(declare-fun w_10 () Int)
(declare-fun err_10 () Bool)
(declare-fun xn_9 () Int)
(declare-fun xa_9 () Int)
(declare-fun f_9 () Proc)
(declare-fun block_num_10 () Int)
(declare-fun success_11 () Bool)
(declare-fun t_success_10_0 () Bool)
(declare-fun aw_11_2 () Int)
(declare-fun aw_11_1 () Int)
(declare-fun aw_11_0 () Int)
(declare-fun t_w_10_0 () Int)
(declare-fun w_11 () Int)
(declare-fun err_11 () Bool)
(declare-fun xn_10 () Int)
(declare-fun xa_10 () Int)
(declare-fun f_10 () Proc)
(declare-fun block_num_11 () Int)
(assert
 (>= w_0 0))
(assert
 (let (($x3425 (= t_success_0_0 success_1)))
 (let (($x3423 (= aw_1_2 aw_0_2)))
 (let (($x3422 (= aw_1_1 aw_0_1)))
 (let (($x3421 (= aw_1_0 aw_0_0)))
 (let (($x3420 (= w_1 t_w_0_0)))
 (let (($x3427 (and (> xn_0 0) (= err_1 false) true (= t_success_0_0 false) (and $x3420 (and $x3421 $x3422 $x3423) $x3425))))
 (and (and (>= xa_0 0) (<= xa_0 2) (>= xn_0 0)) (and (>= aw_0_0 0) (>= aw_0_1 0) (>= aw_0_2 0)) (and (= t_w_0_0 (+ w_0 xn_0)) $x3427)))))))))
(assert
 (let (($x3471 (= t_success_1_0 success_2)))
 (let (($x3454 (= aw_2_2 aw_1_2)))
 (let (($x3453 (= aw_2_1 aw_1_1)))
 (let (($x3452 (= aw_2_0 aw_1_0)))
 (let (($x3455 (and $x3452 $x3453 $x3454)))
 (let (($x3451 (= w_2 t_w_1_0)))
 (let (($x3448 (= err_2 false)))
 (let (($x3470 (ite (and (>= t_w_1_0 10)) (and (= t_success_1_0 true) true) (and true true (= t_success_1_0 success_1)))))
 (let (($x3450 (= t_w_1_0 (+ w_1 xn_1))))
 (let (($x3462 (<= xa_1 2)))
 (let (($x3461 (>= xa_1 1)))
 (let (($x3475 (and $x3461 $x3462 (and $x3450 (and $x3470 $x3448 true (and $x3451 $x3455 $x3471))))))
 (let (($x3447 (= xa_1 0)))
 (let (($x3459 (and $x3447 (and $x3448 $x3450 (and $x3451 $x3455 (= success_1 success_2))))))
 (let (($x3446 (= f_1 coinbase)))
 (and (and (>= xn_1 0) (>= w_2 0)) (and (>= aw_1_0 0) (>= aw_1_1 0) (>= aw_1_2 0)) (>= block_num_2 block_num_1) (ite $x3446 $x3459 $x3475))))))))))))))))))
(assert
 (let (($x3520 (= t_success_2_0 success_3)))
 (let (($x3505 (= aw_3_2 aw_2_2)))
 (let (($x3504 (= aw_3_1 aw_2_1)))
 (let (($x3503 (= aw_3_0 aw_2_0)))
 (let (($x3506 (and $x3503 $x3504 $x3505)))
 (let (($x3502 (= w_3 t_w_2_0)))
 (let (($x3499 (= err_3 false)))
 (let (($x3519 (ite (and (>= t_w_2_0 10)) (and (= t_success_2_0 true) true) (and true true (= t_success_2_0 success_2)))))
 (let (($x3501 (= t_w_2_0 (+ w_2 xn_2))))
 (let (($x3512 (<= xa_2 2)))
 (let (($x3511 (>= xa_2 1)))
 (let (($x3524 (and $x3511 $x3512 (and $x3501 (and $x3519 $x3499 true (and $x3502 $x3506 $x3520))))))
 (let (($x3498 (= xa_2 0)))
 (let (($x3510 (and $x3498 (and $x3499 $x3501 (and $x3502 $x3506 (= success_2 success_3))))))
 (let (($x3497 (= f_2 coinbase)))
 (and (and (>= xn_2 0) (>= w_3 0)) (and (>= aw_2_0 0) (>= aw_2_1 0) (>= aw_2_2 0)) (>= block_num_3 block_num_2) (ite $x3497 $x3510 $x3524))))))))))))))))))
(assert
 (let (($x3569 (= t_success_3_0 success_4)))
 (let (($x3554 (= aw_4_2 aw_3_2)))
 (let (($x3553 (= aw_4_1 aw_3_1)))
 (let (($x3552 (= aw_4_0 aw_3_0)))
 (let (($x3555 (and $x3552 $x3553 $x3554)))
 (let (($x3551 (= w_4 t_w_3_0)))
 (let (($x3548 (= err_4 false)))
 (let (($x3568 (ite (and (>= t_w_3_0 10)) (and (= t_success_3_0 true) true) (and true true (= t_success_3_0 success_3)))))
 (let (($x3550 (= t_w_3_0 (+ w_3 xn_3))))
 (let (($x3561 (<= xa_3 2)))
 (let (($x3560 (>= xa_3 1)))
 (let (($x3573 (and $x3560 $x3561 (and $x3550 (and $x3568 $x3548 true (and $x3551 $x3555 $x3569))))))
 (let (($x3547 (= xa_3 0)))
 (let (($x3559 (and $x3547 (and $x3548 $x3550 (and $x3551 $x3555 (= success_3 success_4))))))
 (let (($x3546 (= f_3 coinbase)))
 (and (and (>= xn_3 0) (>= w_4 0)) (and (>= aw_3_0 0) (>= aw_3_1 0) (>= aw_3_2 0)) (>= block_num_4 block_num_3) (ite $x3546 $x3559 $x3573))))))))))))))))))
(assert
 (let (($x3618 (= t_success_4_0 success_5)))
 (let (($x3603 (= aw_5_2 aw_4_2)))
 (let (($x3602 (= aw_5_1 aw_4_1)))
 (let (($x3601 (= aw_5_0 aw_4_0)))
 (let (($x3604 (and $x3601 $x3602 $x3603)))
 (let (($x3600 (= w_5 t_w_4_0)))
 (let (($x3597 (= err_5 false)))
 (let (($x3617 (ite (and (>= t_w_4_0 10)) (and (= t_success_4_0 true) true) (and true true (= t_success_4_0 success_4)))))
 (let (($x3599 (= t_w_4_0 (+ w_4 xn_4))))
 (let (($x3610 (<= xa_4 2)))
 (let (($x3609 (>= xa_4 1)))
 (let (($x3622 (and $x3609 $x3610 (and $x3599 (and $x3617 $x3597 true (and $x3600 $x3604 $x3618))))))
 (let (($x3596 (= xa_4 0)))
 (let (($x3608 (and $x3596 (and $x3597 $x3599 (and $x3600 $x3604 (= success_4 success_5))))))
 (let (($x3595 (= f_4 coinbase)))
 (and (and (>= xn_4 0) (>= w_5 0)) (and (>= aw_4_0 0) (>= aw_4_1 0) (>= aw_4_2 0)) (>= block_num_5 block_num_4) (ite $x3595 $x3608 $x3622))))))))))))))))))
(assert
 (let (($x3667 (= t_success_5_0 success_6)))
 (let (($x3652 (= aw_6_2 aw_5_2)))
 (let (($x3651 (= aw_6_1 aw_5_1)))
 (let (($x3650 (= aw_6_0 aw_5_0)))
 (let (($x3653 (and $x3650 $x3651 $x3652)))
 (let (($x3649 (= w_6 t_w_5_0)))
 (let (($x3646 (= err_6 false)))
 (let (($x3666 (ite (and (>= t_w_5_0 10)) (and (= t_success_5_0 true) true) (and true true (= t_success_5_0 success_5)))))
 (let (($x3648 (= t_w_5_0 (+ w_5 xn_5))))
 (let (($x3659 (<= xa_5 2)))
 (let (($x3658 (>= xa_5 1)))
 (let (($x3671 (and $x3658 $x3659 (and $x3648 (and $x3666 $x3646 true (and $x3649 $x3653 $x3667))))))
 (let (($x3645 (= xa_5 0)))
 (let (($x3657 (and $x3645 (and $x3646 $x3648 (and $x3649 $x3653 (= success_5 success_6))))))
 (let (($x3644 (= f_5 coinbase)))
 (and (and (>= xn_5 0) (>= w_6 0)) (and (>= aw_5_0 0) (>= aw_5_1 0) (>= aw_5_2 0)) (>= block_num_6 block_num_5) (ite $x3644 $x3657 $x3671))))))))))))))))))
(assert
 (let (($x3716 (= t_success_6_0 success_7)))
 (let (($x3701 (= aw_7_2 aw_6_2)))
 (let (($x3700 (= aw_7_1 aw_6_1)))
 (let (($x3699 (= aw_7_0 aw_6_0)))
 (let (($x3702 (and $x3699 $x3700 $x3701)))
 (let (($x3698 (= w_7 t_w_6_0)))
 (let (($x3695 (= err_7 false)))
 (let (($x3715 (ite (and (>= t_w_6_0 10)) (and (= t_success_6_0 true) true) (and true true (= t_success_6_0 success_6)))))
 (let (($x3697 (= t_w_6_0 (+ w_6 xn_6))))
 (let (($x3708 (<= xa_6 2)))
 (let (($x3707 (>= xa_6 1)))
 (let (($x3720 (and $x3707 $x3708 (and $x3697 (and $x3715 $x3695 true (and $x3698 $x3702 $x3716))))))
 (let (($x3694 (= xa_6 0)))
 (let (($x3706 (and $x3694 (and $x3695 $x3697 (and $x3698 $x3702 (= success_6 success_7))))))
 (let (($x3693 (= f_6 coinbase)))
 (and (and (>= xn_6 0) (>= w_7 0)) (and (>= aw_6_0 0) (>= aw_6_1 0) (>= aw_6_2 0)) (>= block_num_7 block_num_6) (ite $x3693 $x3706 $x3720))))))))))))))))))
(assert
 (let (($x3765 (= t_success_7_0 success_8)))
 (let (($x3750 (= aw_8_2 aw_7_2)))
 (let (($x3749 (= aw_8_1 aw_7_1)))
 (let (($x3748 (= aw_8_0 aw_7_0)))
 (let (($x3751 (and $x3748 $x3749 $x3750)))
 (let (($x3747 (= w_8 t_w_7_0)))
 (let (($x3744 (= err_8 false)))
 (let (($x3764 (ite (and (>= t_w_7_0 10)) (and (= t_success_7_0 true) true) (and true true (= t_success_7_0 success_7)))))
 (let (($x3746 (= t_w_7_0 (+ w_7 xn_7))))
 (let (($x3757 (<= xa_7 2)))
 (let (($x3756 (>= xa_7 1)))
 (let (($x3769 (and $x3756 $x3757 (and $x3746 (and $x3764 $x3744 true (and $x3747 $x3751 $x3765))))))
 (let (($x3743 (= xa_7 0)))
 (let (($x3755 (and $x3743 (and $x3744 $x3746 (and $x3747 $x3751 (= success_7 success_8))))))
 (let (($x3742 (= f_7 coinbase)))
 (and (and (>= xn_7 0) (>= w_8 0)) (and (>= aw_7_0 0) (>= aw_7_1 0) (>= aw_7_2 0)) (>= block_num_8 block_num_7) (ite $x3742 $x3755 $x3769))))))))))))))))))
(assert
 (let (($x3814 (= t_success_8_0 success_9)))
 (let (($x3799 (= aw_9_2 aw_8_2)))
 (let (($x3798 (= aw_9_1 aw_8_1)))
 (let (($x3797 (= aw_9_0 aw_8_0)))
 (let (($x3800 (and $x3797 $x3798 $x3799)))
 (let (($x3796 (= w_9 t_w_8_0)))
 (let (($x3793 (= err_9 false)))
 (let (($x3813 (ite (and (>= t_w_8_0 10)) (and (= t_success_8_0 true) true) (and true true (= t_success_8_0 success_8)))))
 (let (($x3795 (= t_w_8_0 (+ w_8 xn_8))))
 (let (($x3806 (<= xa_8 2)))
 (let (($x3805 (>= xa_8 1)))
 (let (($x3818 (and $x3805 $x3806 (and $x3795 (and $x3813 $x3793 true (and $x3796 $x3800 $x3814))))))
 (let (($x3792 (= xa_8 0)))
 (let (($x3804 (and $x3792 (and $x3793 $x3795 (and $x3796 $x3800 (= success_8 success_9))))))
 (let (($x3791 (= f_8 coinbase)))
 (and (and (>= xn_8 0) (>= w_9 0)) (and (>= aw_8_0 0) (>= aw_8_1 0) (>= aw_8_2 0)) (>= block_num_9 block_num_8) (ite $x3791 $x3804 $x3818))))))))))))))))))
(assert
 (let (($x3863 (= t_success_9_0 success_10)))
 (let (($x3848 (= aw_10_2 aw_9_2)))
 (let (($x3847 (= aw_10_1 aw_9_1)))
 (let (($x3846 (= aw_10_0 aw_9_0)))
 (let (($x3849 (and $x3846 $x3847 $x3848)))
 (let (($x3845 (= w_10 t_w_9_0)))
 (let (($x3842 (= err_10 false)))
 (let (($x3862 (ite (and (>= t_w_9_0 10)) (and (= t_success_9_0 true) true) (and true true (= t_success_9_0 success_9)))))
 (let (($x3844 (= t_w_9_0 (+ w_9 xn_9))))
 (let (($x3855 (<= xa_9 2)))
 (let (($x3854 (>= xa_9 1)))
 (let (($x3867 (and $x3854 $x3855 (and $x3844 (and $x3862 $x3842 true (and $x3845 $x3849 $x3863))))))
 (let (($x3841 (= xa_9 0)))
 (let (($x3853 (and $x3841 (and $x3842 $x3844 (and $x3845 $x3849 (= success_9 success_10))))))
 (let (($x3840 (= f_9 coinbase)))
 (and (and (>= xn_9 0) (>= w_10 0)) (and (>= aw_9_0 0) (>= aw_9_1 0) (>= aw_9_2 0)) (>= block_num_10 block_num_9) (ite $x3840 $x3853 $x3867))))))))))))))))))
(assert
 (let (($x3912 (= t_success_10_0 success_11)))
 (let (($x3897 (= aw_11_2 aw_10_2)))
 (let (($x3896 (= aw_11_1 aw_10_1)))
 (let (($x3895 (= aw_11_0 aw_10_0)))
 (let (($x3898 (and $x3895 $x3896 $x3897)))
 (let (($x3894 (= w_11 t_w_10_0)))
 (let (($x3891 (= err_11 false)))
 (let (($x3911 (ite (and (>= t_w_10_0 10)) (and (= t_success_10_0 true) true) (and true true (= t_success_10_0 success_10)))))
 (let (($x3893 (= t_w_10_0 (+ w_10 xn_10))))
 (let (($x3904 (<= xa_10 2)))
 (let (($x3903 (>= xa_10 1)))
 (let (($x3916 (and $x3903 $x3904 (and $x3893 (and $x3911 $x3891 true (and $x3894 $x3898 $x3912))))))
 (let (($x3890 (= xa_10 0)))
 (let (($x3902 (and $x3890 (and $x3891 $x3893 (and $x3894 $x3898 (= success_10 success_11))))))
 (let (($x3889 (= f_10 coinbase)))
 (and (and (>= xn_10 0) (>= w_11 0)) (and (>= aw_10_0 0) (>= aw_10_1 0) (>= aw_10_2 0)) (>= block_num_11 block_num_10) (ite $x3889 $x3902 $x3916))))))))))))))))))
(assert
 (let (($x3957 (exists ((xa_q Int) )(let (($x3952 (forall ((xn_q0 Int) (f_q0 Proc) (wq0 Int) (awq0_0 Int) (awq0_1 Int) (awq0_2 Int) (t_wq0_0 Int) (t_wq0_1 Int) (t_wq0_2 Int) (t_wq0_3 Int) (t_wq0_4 Int) (t_wq0_5 Int) (t_wq0_6 Int) (t_wq0_7 Int) (t_wq0_8 Int) (t_wq0_9 Int) (t_wq0_10 Int) (t_wq0_11 Int) (t_wq0_12 Int) (t_wq0_13 Int) (t_wq0_14 Int) (t_wq0_15 Int) (t_wq0_16 Int) (t_wq0_17 Int) (t_wq0_18 Int) (t_wq0_19 Int) (t_wq0_20 Int) (t_wq0_21 Int) (t_wq0_22 Int) (t_wq0_23 Int) (t_wq0_24 Int) (t_wq0_25 Int) (t_wq0_26 Int) (t_wq0_27 Int) (t_wq0_28 Int) (t_wq0_29 Int) (t_wq0_30 Int) (t_wq0_31 Int) (t_wq0_32 Int) (t_wq0_33 Int) (t_wq0_34 Int) (t_wq0_35 Int) (t_wq0_36 Int) (t_wq0_37 Int) (t_wq0_38 Int) (t_wq0_39 Int) (t_wq0_40 Int) (t_wq0_41 Int) (t_wq0_42 Int) (t_wq0_43 Int) (t_wq0_44 Int) (t_wq0_45 Int) (t_wq0_46 Int) (t_wq0_47 Int) (t_wq0_48 Int) (t_wq0_49 Int) (t_awq0_0_0 Int) (t_awq0_0_1 Int) (t_awq0_0_2 Int) (t_awq0_1_0 Int) (t_awq0_1_1 Int) (t_awq0_1_2 Int) (t_awq0_2_0 Int) (t_awq0_2_1 Int) (t_awq0_2_2 Int) (t_awq0_3_0 Int) (t_awq0_3_1 Int) (t_awq0_3_2 Int) (t_awq0_4_0 Int) (t_awq0_4_1 Int) (t_awq0_4_2 Int) (t_awq0_5_0 Int) (t_awq0_5_1 Int) (t_awq0_5_2 Int) (t_awq0_6_0 Int) (t_awq0_6_1 Int) (t_awq0_6_2 Int) (t_awq0_7_0 Int) (t_awq0_7_1 Int) (t_awq0_7_2 Int) (t_awq0_8_0 Int) (t_awq0_8_1 Int) (t_awq0_8_2 Int) (t_awq0_9_0 Int) (t_awq0_9_1 Int) (t_awq0_9_2 Int) (t_awq0_10_0 Int) (t_awq0_10_1 Int) (t_awq0_10_2 Int) (t_awq0_11_0 Int) (t_awq0_11_1 Int) (t_awq0_11_2 Int) (t_awq0_12_0 Int) (t_awq0_12_1 Int) (t_awq0_12_2 Int) (t_awq0_13_0 Int) (t_awq0_13_1 Int) (t_awq0_13_2 Int) (t_awq0_14_0 Int) (t_awq0_14_1 Int) (t_awq0_14_2 Int) (t_awq0_15_0 Int) (t_awq0_15_1 Int) (t_awq0_15_2 Int) (t_awq0_16_0 Int) (t_awq0_16_1 Int) (t_awq0_16_2 Int) (t_awq0_17_0 Int) (t_awq0_17_1 Int) (t_awq0_17_2 Int) (t_awq0_18_0 Int) (t_awq0_18_1 Int) (t_awq0_18_2 Int) (t_awq0_19_0 Int) (t_awq0_19_1 Int) (t_awq0_19_2 Int) (t_awq0_20_0 Int) (t_awq0_20_1 Int) (t_awq0_20_2 Int) (t_awq0_21_0 Int) (t_awq0_21_1 Int) (t_awq0_21_2 Int) (t_awq0_22_0 Int) (t_awq0_22_1 Int) (t_awq0_22_2 Int) (t_awq0_23_0 Int) (t_awq0_23_1 Int) (t_awq0_23_2 Int) (t_awq0_24_0 Int) (t_awq0_24_1 Int) (t_awq0_24_2 Int) (t_awq0_25_0 Int) (t_awq0_25_1 Int) (t_awq0_25_2 Int) (t_awq0_26_0 Int) (t_awq0_26_1 Int) (t_awq0_26_2 Int) (t_awq0_27_0 Int) (t_awq0_27_1 Int) (t_awq0_27_2 Int) (t_awq0_28_0 Int) (t_awq0_28_1 Int) (t_awq0_28_2 Int) (t_awq0_29_0 Int) (t_awq0_29_1 Int) (t_awq0_29_2 Int) (t_awq0_30_0 Int) (t_awq0_30_1 Int) (t_awq0_30_2 Int) (t_awq0_31_0 Int) (t_awq0_31_1 Int) (t_awq0_31_2 Int) (t_awq0_32_0 Int) (t_awq0_32_1 Int) (t_awq0_32_2 Int) (t_awq0_33_0 Int) (t_awq0_33_1 Int) (t_awq0_33_2 Int) (t_awq0_34_0 Int) (t_awq0_34_1 Int) (t_awq0_34_2 Int) (t_awq0_35_0 Int) (t_awq0_35_1 Int) (t_awq0_35_2 Int) (t_awq0_36_0 Int) (t_awq0_36_1 Int) (t_awq0_36_2 Int) (t_awq0_37_0 Int) (t_awq0_37_1 Int) (t_awq0_37_2 Int) (t_awq0_38_0 Int) (t_awq0_38_1 Int) (t_awq0_38_2 Int) (t_awq0_39_0 Int) (t_awq0_39_1 Int) (t_awq0_39_2 Int) (t_awq0_40_0 Int) (t_awq0_40_1 Int) (t_awq0_40_2 Int) (t_awq0_41_0 Int) (t_awq0_41_1 Int) (t_awq0_41_2 Int) (t_awq0_42_0 Int) (t_awq0_42_1 Int) (t_awq0_42_2 Int) (t_awq0_43_0 Int) (t_awq0_43_1 Int) (t_awq0_43_2 Int) (t_awq0_44_0 Int) (t_awq0_44_1 Int) (t_awq0_44_2 Int) (t_awq0_45_0 Int) (t_awq0_45_1 Int) (t_awq0_45_2 Int) (t_awq0_46_0 Int) (t_awq0_46_1 Int) (t_awq0_46_2 Int) (t_awq0_47_0 Int) (t_awq0_47_1 Int) (t_awq0_47_2 Int) (t_awq0_48_0 Int) (t_awq0_48_1 Int) (t_awq0_48_2 Int) (t_awq0_49_0 Int) (t_awq0_49_1 Int) (t_awq0_49_2 Int) (err_q0 Bool) (successq0 Bool) (t_successq0_0 Bool) (t_successq0_1 Bool) (t_successq0_2 Bool) (t_successq0_3 Bool) (t_successq0_4 Bool) (t_successq0_5 Bool) (t_successq0_6 Bool) (t_successq0_7 Bool) (t_successq0_8 Bool) (t_successq0_9 Bool) (t_successq0_10 Bool) (t_successq0_11 Bool) (t_successq0_12 Bool) (t_successq0_13 Bool) (t_successq0_14 Bool) (t_successq0_15 Bool) (t_successq0_16 Bool) (t_successq0_17 Bool) (t_successq0_18 Bool) (t_successq0_19 Bool) (t_successq0_20 Bool) (t_successq0_21 Bool) (t_successq0_22 Bool) (t_successq0_23 Bool) (t_successq0_24 Bool) (t_successq0_25 Bool) (t_successq0_26 Bool) (t_successq0_27 Bool) (t_successq0_28 Bool) (t_successq0_29 Bool) (t_successq0_30 Bool) (t_successq0_31 Bool) (t_successq0_32 Bool) (t_successq0_33 Bool) (t_successq0_34 Bool) (t_successq0_35 Bool) (t_successq0_36 Bool) (t_successq0_37 Bool) (t_successq0_38 Bool) (t_successq0_39 Bool) (t_successq0_40 Bool) (t_successq0_41 Bool) (t_successq0_42 Bool) (t_successq0_43 Bool) (t_successq0_44 Bool) (t_successq0_45 Bool) (t_successq0_46 Bool) (t_successq0_47 Bool) (t_successq0_48 Bool) (t_successq0_49 Bool) )(let (($x4236 (and (= awq0_0 aw_11_0) (= awq0_1 aw_11_1) (= awq0_2 aw_11_2))))
(let (($x4237 (= wq0 t_wq0_0)))
(let (($x4239 (= err_q0 false)))
(let (($x4246 (ite (and (>= t_wq0_0 10)) (and (= t_successq0_0 true) true) (and true true (= t_successq0_0 success_11)))))
(let (($x4249 (= t_wq0_0 (+ w_11 xn_q0))))
(let (($x3945 (and (>= xa_q 1) (<= xa_q 2) (and $x4249 (and $x4246 $x4239 true (and $x4237 $x4236 (= t_successq0_0 successq0)))))))
(let (($x3947 (and (= xa_q 0) (and $x4239 $x4249 (and $x4237 $x4236 (= success_11 successq0))))))
(let (($x3949 (and (and (>= xn_q0 0) (>= wq0 0)) (and (>= aw_11_0 0) (>= aw_11_1 0) (>= aw_11_2 0)) (>= block_num_11 block_num_11) (ite (= f_q0 coinbase) $x3947 $x3945))))
(or (not $x3949) (not successq0)))))))))))
))
(and (and (>= xa_q 1) (<= xa_q 2)) (> w_11 0) $x3952)))
))
(and $x3957)))
(check-sat)

(get-model)